94 95 92 98 85 61 16 86 38 44 14 42 43 15 57 2 41 22 74 58 
27 69 70 30 51 9 35 71 65 66 20 32 90 63 10 
52 18 83 8 46 45 17 84 5 60 89 
28 12 76 77 68 80 29 34 78 81 33 79 3 50 1 
6 96 99 59 93 91 100 37 97 87 13 
31 88 62 19 11 64 49 36 47 48 82 7 
53 40 21 73 72 75 56 23 67 39 4 25 55 24 54 26 
